-416 -201
6 32
320 184
-243 -84
204 98
233 -5
262 -196
-148 311
200 220
-436 184
397 -190
290 96
314 182
-112 -373
-228 -267
-314 -321
-48 -325
178 215
-149 -307
-204 193
-13 243
99 -221
-97 218
-36 17
-443 -138
-184 -198
-223 38
-49 163
-113 334
-240 271
